80 874640139
40 6 18 1 23 43 64 26 80 50 71 8 73 49 14 33 28 56 17 4 52 54 37 67 21 25 47 35 16 29 13 55 27 3 41 7 12 38 53 5 10 22 32 2 30 36 57 78 70 11 9 42 63 69 51 48 24 75 15 46 79 39 72 60 19 65 58 59 62 31 76 77 44 61 74 34 66 20 45 68 
